\Problem name: compact

Minimize
OBJROW: C
Subject To
ord(0,1):  - x(0,0) + x(0,1) >= 1
ord(0,2):  - x(0,1) + x(0,2) >= 3
ord(1,1):  - x(1,1) + x(1,2) >= 9
ord(1,2):  x(1,0) - x(1,2) >= 3
ord(2,1):  - x(2,0) + x(2,1) >= 10
ord(2,2):  - x(2,1) + x(2,2) >= 1
ord(3,1):  - x(3,0) + x(3,2) >= 1
ord(3,2):  x(3,1) - x(3,2) >= 8
triangle2(0,1,0):  y(0,1,0) + y(1,0,0) = 1
triangle2(0,1,1):  y(0,1,1) + y(1,0,1) = 1
triangle2(0,1,2):  y(0,1,2) + y(1,0,2) = 1
triangle2(0,2,0):  y(0,2,0) + y(2,0,0) = 1
triangle2(0,2,1):  y(0,2,1) + y(2,0,1) = 1
triangle2(0,2,2):  y(0,2,2) + y(2,0,2) = 1
triangle2(0,3,0):  y(0,3,0) + y(3,0,0) = 1
triangle2(0,3,1):  y(0,3,1) + y(3,0,1) = 1
triangle2(0,3,2):  y(0,3,2) + y(3,0,2) = 1
triangle2(1,2,0):  y(1,2,0) + y(2,1,0) = 1
triangle2(1,2,1):  y(1,2,1) + y(2,1,1) = 1
triangle2(1,2,2):  y(1,2,2) + y(2,1,2) = 1
triangle2(1,3,0):  y(1,3,0) + y(3,1,0) = 1
triangle2(1,3,1):  y(1,3,1) + y(3,1,1) = 1
triangle2(1,3,2):  y(1,3,2) + y(3,1,2) = 1
triangle2(2,3,0):  y(2,3,0) + y(3,2,0) = 1
triangle2(2,3,1):  y(2,3,1) + y(3,2,1) = 1
triangle2(2,3,2):  y(2,3,2) + y(3,2,2) = 1
MCLinV(0,1,0):  x(0,0) - v(0,1,0) - x(1,0) = 1
MCLinV(1,0,0):  - x(0,0) - v(1,0,0) + x(1,0) = 1
MCLin1(0,1,0):  u(0,1,0) >= -0
MCLin2(0,1,0):  -56 y(1,0,0) - u(0,1,0) <= -0
MCLin3(0,1,0):  31 y(1,0,0) + v(0,1,0) - u(0,1,0) <= 31
MCLin4(0,1,0):  31 y(1,0,0) - u(0,1,0) >= -0
MCLin5(0,1,0):  -56 y(1,0,0) + v(0,1,0) - u(0,1,0) >= -56
MCLin6(1,0,0):  u(1,0,0) >= -0
MCLin7(1,0,0):  -33 y(0,1,0) - u(1,0,0) <= -0
MCLin8(1,0,0):  54 y(0,1,0) + v(1,0,0) - u(1,0,0) <= 54
MCLin9(1,0,0):  54 y(0,1,0) - u(1,0,0) >= -0
MCLin10(1,0,0):  -33 y(0,1,0) + v(1,0,0) - u(1,0,0) >= -33
MCLinV(0,1,1):  x(0,1) - v(0,1,1) - x(1,1) = 9
MCLinV(1,0,1):  - x(0,1) - v(1,0,1) + x(1,1) = 3
MCLin1(0,1,1):  u(0,1,1) >= -0
MCLin2(0,1,1):  -51 y(1,0,1) - u(0,1,1) <= -0
MCLin3(0,1,1):  36 y(1,0,1) + v(0,1,1) - u(0,1,1) <= 36
MCLin4(0,1,1):  36 y(1,0,1) - u(0,1,1) >= -0
MCLin5(0,1,1):  -51 y(1,0,1) + v(0,1,1) - u(0,1,1) >= -51
MCLin6(1,0,1):  u(1,0,1) >= -0
MCLin7(1,0,1):  -48 y(0,1,1) - u(1,0,1) <= -0
MCLin8(1,0,1):  39 y(0,1,1) + v(1,0,1) - u(1,0,1) <= 39
MCLin9(1,0,1):  39 y(0,1,1) - u(1,0,1) >= -0
MCLin10(1,0,1):  -48 y(0,1,1) + v(1,0,1) - u(1,0,1) >= -48
MCLinV(0,1,2):  x(0,2) - v(0,1,2) - x(1,2) = 3
MCLinV(1,0,2):  - x(0,2) - v(1,0,2) + x(1,2) = 8
MCLin1(0,1,2):  u(0,1,2) >= -0
MCLin2(0,1,2):  -51 y(1,0,2) - u(0,1,2) <= -0
MCLin3(0,1,2):  36 y(1,0,2) + v(0,1,2) - u(0,1,2) <= 36
MCLin4(0,1,2):  36 y(1,0,2) - u(0,1,2) >= -0
MCLin5(0,1,2):  -51 y(1,0,2) + v(0,1,2) - u(0,1,2) >= -51
MCLin6(1,0,2):  u(1,0,2) >= -0
MCLin7(1,0,2):  -47 y(0,1,2) - u(1,0,2) <= -0
MCLin8(1,0,2):  40 y(0,1,2) + v(1,0,2) - u(1,0,2) <= 40
MCLin9(1,0,2):  40 y(0,1,2) - u(1,0,2) >= -0
MCLin10(1,0,2):  -47 y(0,1,2) + v(1,0,2) - u(1,0,2) >= -47
MCLinV(0,2,0):  x(0,0) - v(0,2,0) - x(2,0) = 10
MCLinV(2,0,0):  - x(0,0) - v(2,0,0) + x(2,0) = 1
MCLin1(0,2,0):  u(0,2,0) >= -0
MCLin2(0,2,0):  -47 y(2,0,0) - u(0,2,0) <= -0
MCLin3(0,2,0):  34 y(2,0,0) + v(0,2,0) - u(0,2,0) <= 34
MCLin4(0,2,0):  34 y(2,0,0) - u(0,2,0) >= -0
MCLin5(0,2,0):  -47 y(2,0,0) + v(0,2,0) - u(0,2,0) >= -47
MCLin6(2,0,0):  u(2,0,0) >= -0
MCLin7(2,0,0):  -45 y(0,2,0) - u(2,0,0) <= -0
MCLin8(2,0,0):  36 y(0,2,0) + v(2,0,0) - u(2,0,0) <= 36
MCLin9(2,0,0):  36 y(0,2,0) - u(2,0,0) >= -0
MCLin10(2,0,0):  -45 y(0,2,0) + v(2,0,0) - u(2,0,0) >= -45
MCLinV(0,2,1):  x(0,1) - v(0,2,1) - x(2,1) = 1
MCLinV(2,0,1):  - x(0,1) - v(2,0,1) + x(2,1) = 3
MCLin1(0,2,1):  u(0,2,1) >= -0
MCLin2(0,2,1):  -47 y(2,0,1) - u(0,2,1) <= -0
MCLin3(0,2,1):  34 y(2,0,1) + v(0,2,1) - u(0,2,1) <= 34
MCLin4(0,2,1):  34 y(2,0,1) - u(0,2,1) >= -0
MCLin5(0,2,1):  -47 y(2,0,1) + v(0,2,1) - u(0,2,1) >= -47
MCLin6(2,0,1):  u(2,0,1) >= -0
MCLin7(2,0,1):  -38 y(0,2,1) - u(2,0,1) <= -0
MCLin8(2,0,1):  43 y(0,2,1) + v(2,0,1) - u(2,0,1) <= 43
MCLin9(2,0,1):  43 y(0,2,1) - u(2,0,1) >= -0
MCLin10(2,0,1):  -38 y(0,2,1) + v(2,0,1) - u(2,0,1) >= -38
MCLinV(0,2,2):  x(0,2) - v(0,2,2) - x(2,2) = 8
MCLinV(2,0,2):  - x(0,2) - v(2,0,2) + x(2,2) = 8
MCLin1(0,2,2):  u(0,2,2) >= -0
MCLin2(0,2,2):  -52 y(2,0,2) - u(0,2,2) <= -0
MCLin3(0,2,2):  29 y(2,0,2) + v(0,2,2) - u(0,2,2) <= 29
MCLin4(0,2,2):  29 y(2,0,2) - u(0,2,2) >= -0
MCLin5(0,2,2):  -52 y(2,0,2) + v(0,2,2) - u(0,2,2) >= -52
MCLin6(2,0,2):  u(2,0,2) >= -0
MCLin7(2,0,2):  -45 y(0,2,2) - u(2,0,2) <= -0
MCLin8(2,0,2):  36 y(0,2,2) + v(2,0,2) - u(2,0,2) <= 36
MCLin9(2,0,2):  36 y(0,2,2) - u(2,0,2) >= -0
MCLin10(2,0,2):  -45 y(0,2,2) + v(2,0,2) - u(2,0,2) >= -45
MCLinV(0,3,0):  x(0,0) - v(0,3,0) - x(3,0) = 1
MCLinV(3,0,0):  - x(0,0) - v(3,0,0) + x(3,0) = 1
MCLin1(0,3,0):  u(0,3,0) >= -0
MCLin2(0,3,0):  -45 y(3,0,0) - u(0,3,0) <= -0
MCLin3(0,3,0):  43 y(3,0,0) + v(0,3,0) - u(0,3,0) <= 43
MCLin4(0,3,0):  43 y(3,0,0) - u(0,3,0) >= -0
MCLin5(0,3,0):  -45 y(3,0,0) + v(0,3,0) - u(0,3,0) >= -45
MCLin6(3,0,0):  u(3,0,0) >= -0
MCLin7(3,0,0):  -45 y(0,3,0) - u(3,0,0) <= -0
MCLin8(3,0,0):  43 y(0,3,0) + v(3,0,0) - u(3,0,0) <= 43
MCLin9(3,0,0):  43 y(0,3,0) - u(3,0,0) >= -0
MCLin10(3,0,0):  -45 y(0,3,0) + v(3,0,0) - u(3,0,0) >= -45
MCLinV(0,3,1):  x(0,1) - v(0,3,1) - x(3,1) = 3
MCLinV(3,0,1):  - x(0,1) - v(3,0,1) + x(3,1) = 3
MCLin1(0,3,1):  u(0,3,1) >= -0
MCLin2(0,3,1):  -55 y(3,0,1) - u(0,3,1) <= -0
MCLin3(0,3,1):  33 y(3,0,1) + v(0,3,1) - u(0,3,1) <= 33
MCLin4(0,3,1):  33 y(3,0,1) - u(0,3,1) >= -0
MCLin5(0,3,1):  -55 y(3,0,1) + v(0,3,1) - u(0,3,1) >= -55
MCLin6(3,0,1):  u(3,0,1) >= -0
MCLin7(3,0,1):  -39 y(0,3,1) - u(3,0,1) <= -0
MCLin8(3,0,1):  49 y(0,3,1) + v(3,0,1) - u(3,0,1) <= 49
MCLin9(3,0,1):  49 y(0,3,1) - u(3,0,1) >= -0
MCLin10(3,0,1):  -39 y(0,3,1) + v(3,0,1) - u(3,0,1) >= -39
MCLinV(0,3,2):  x(0,2) - v(0,3,2) - x(3,2) = 8
MCLinV(3,0,2):  - x(0,2) - v(3,0,2) + x(3,2) = 8
MCLin1(0,3,2):  u(0,3,2) >= -0
MCLin2(0,3,2):  -49 y(3,0,2) - u(0,3,2) <= -0
MCLin3(0,3,2):  39 y(3,0,2) + v(0,3,2) - u(0,3,2) <= 39
MCLin4(0,3,2):  39 y(3,0,2) - u(0,3,2) >= -0
MCLin5(0,3,2):  -49 y(3,0,2) + v(0,3,2) - u(0,3,2) >= -49
MCLin6(3,0,2):  u(3,0,2) >= -0
MCLin7(3,0,2):  -55 y(0,3,2) - u(3,0,2) <= -0
MCLin8(3,0,2):  33 y(0,3,2) + v(3,0,2) - u(3,0,2) <= 33
MCLin9(3,0,2):  33 y(0,3,2) - u(3,0,2) >= -0
MCLin10(3,0,2):  -55 y(0,3,2) + v(3,0,2) - u(3,0,2) >= -55
MCLinV(1,2,0):  x(1,0) - v(1,2,0) - x(2,0) = 10
MCLinV(2,1,0):  - x(1,0) - v(2,1,0) + x(2,0) = 1
MCLin1(1,2,0):  u(1,2,0) >= -0
MCLin2(1,2,0):  -35 y(2,1,0) - u(1,2,0) <= -0
MCLin3(1,2,0):  45 y(2,1,0) + v(1,2,0) - u(1,2,0) <= 45
MCLin4(1,2,0):  45 y(2,1,0) - u(1,2,0) >= -0
MCLin5(1,2,0):  -35 y(2,1,0) + v(1,2,0) - u(1,2,0) >= -35
MCLin6(2,1,0):  u(2,1,0) >= -0
MCLin7(2,1,0):  -56 y(1,2,0) - u(2,1,0) <= -0
MCLin8(2,1,0):  24 y(1,2,0) + v(2,1,0) - u(2,1,0) <= 24
MCLin9(2,1,0):  24 y(1,2,0) - u(2,1,0) >= -0
MCLin10(2,1,0):  -56 y(1,2,0) + v(2,1,0) - u(2,1,0) >= -56
MCLinV(1,2,1):  x(1,1) - v(1,2,1) - x(2,1) = 1
MCLinV(2,1,1):  - x(1,1) - v(2,1,1) + x(2,1) = 9
MCLin1(1,2,1):  u(1,2,1) >= -0
MCLin2(1,2,1):  -48 y(2,1,1) - u(1,2,1) <= -0
MCLin3(1,2,1):  32 y(2,1,1) + v(1,2,1) - u(1,2,1) <= 32
MCLin4(1,2,1):  32 y(2,1,1) - u(1,2,1) >= -0
MCLin5(1,2,1):  -48 y(2,1,1) + v(1,2,1) - u(1,2,1) >= -48
MCLin6(2,1,1):  u(2,1,1) >= -0
MCLin7(2,1,1):  -42 y(1,2,1) - u(2,1,1) <= -0
MCLin8(2,1,1):  38 y(1,2,1) + v(2,1,1) - u(2,1,1) <= 38
MCLin9(2,1,1):  38 y(1,2,1) - u(2,1,1) >= -0
MCLin10(2,1,1):  -42 y(1,2,1) + v(2,1,1) - u(2,1,1) >= -42
MCLinV(1,2,2):  x(1,2) - v(1,2,2) - x(2,2) = 8
MCLinV(2,1,2):  - x(1,2) - v(2,1,2) + x(2,2) = 3
MCLin1(1,2,2):  u(1,2,2) >= -0
MCLin2(1,2,2):  -47 y(2,1,2) - u(1,2,2) <= -0
MCLin3(1,2,2):  33 y(2,1,2) + v(1,2,2) - u(1,2,2) <= 33
MCLin4(1,2,2):  33 y(2,1,2) - u(1,2,2) >= -0
MCLin5(1,2,2):  -47 y(2,1,2) + v(1,2,2) - u(1,2,2) >= -47
MCLin6(2,1,2):  u(2,1,2) >= -0
MCLin7(2,1,2):  -44 y(1,2,2) - u(2,1,2) <= -0
MCLin8(2,1,2):  36 y(1,2,2) + v(2,1,2) - u(2,1,2) <= 36
MCLin9(2,1,2):  36 y(1,2,2) - u(2,1,2) >= -0
MCLin10(2,1,2):  -44 y(1,2,2) + v(2,1,2) - u(2,1,2) >= -44
MCLinV(1,3,0):  x(1,0) - v(1,3,0) - x(3,0) = 1
MCLinV(3,1,0):  - x(1,0) - v(3,1,0) + x(3,0) = 1
MCLin1(1,3,0):  u(1,3,0) >= -0
MCLin2(1,3,0):  -33 y(3,1,0) - u(1,3,0) <= -0
MCLin3(1,3,0):  54 y(3,1,0) + v(1,3,0) - u(1,3,0) <= 54
MCLin4(1,3,0):  54 y(3,1,0) - u(1,3,0) >= -0
MCLin5(1,3,0):  -33 y(3,1,0) + v(1,3,0) - u(1,3,0) >= -33
MCLin6(3,1,0):  u(3,1,0) >= -0
MCLin7(3,1,0):  -56 y(1,3,0) - u(3,1,0) <= -0
MCLin8(3,1,0):  31 y(1,3,0) + v(3,1,0) - u(3,1,0) <= 31
MCLin9(3,1,0):  31 y(1,3,0) - u(3,1,0) >= -0
MCLin10(3,1,0):  -56 y(1,3,0) + v(3,1,0) - u(3,1,0) >= -56
MCLinV(1,3,1):  x(1,1) - v(1,3,1) - x(3,1) = 3
MCLinV(3,1,1):  - x(1,1) - v(3,1,1) + x(3,1) = 9
MCLin1(1,3,1):  u(1,3,1) >= -0
MCLin2(1,3,1):  -56 y(3,1,1) - u(1,3,1) <= -0
MCLin3(1,3,1):  31 y(3,1,1) + v(1,3,1) - u(1,3,1) <= 31
MCLin4(1,3,1):  31 y(3,1,1) - u(1,3,1) >= -0
MCLin5(1,3,1):  -56 y(3,1,1) + v(1,3,1) - u(1,3,1) >= -56
MCLin6(3,1,1):  u(3,1,1) >= -0
MCLin7(3,1,1):  -43 y(1,3,1) - u(3,1,1) <= -0
MCLin8(3,1,1):  44 y(1,3,1) + v(3,1,1) - u(3,1,1) <= 44
MCLin9(3,1,1):  44 y(1,3,1) - u(3,1,1) >= -0
MCLin10(3,1,1):  -43 y(1,3,1) + v(3,1,1) - u(3,1,1) >= -43
MCLinV(1,3,2):  x(1,2) - v(1,3,2) - x(3,2) = 8
MCLinV(3,1,2):  - x(1,2) - v(3,1,2) + x(3,2) = 3
MCLin1(1,3,2):  u(1,3,2) >= -0
MCLin2(1,3,2):  -44 y(3,1,2) - u(1,3,2) <= -0
MCLin3(1,3,2):  43 y(3,1,2) + v(1,3,2) - u(1,3,2) <= 43
MCLin4(1,3,2):  43 y(3,1,2) - u(1,3,2) >= -0
MCLin5(1,3,2):  -44 y(3,1,2) + v(1,3,2) - u(1,3,2) >= -44
MCLin6(3,1,2):  u(3,1,2) >= -0
MCLin7(3,1,2):  -54 y(1,3,2) - u(3,1,2) <= -0
MCLin8(3,1,2):  33 y(1,3,2) + v(3,1,2) - u(3,1,2) <= 33
MCLin9(3,1,2):  33 y(1,3,2) - u(3,1,2) >= -0
MCLin10(3,1,2):  -54 y(1,3,2) + v(3,1,2) - u(3,1,2) >= -54
MCLinV(2,3,0):  x(2,0) - v(2,3,0) - x(3,0) = 1
MCLinV(3,2,0):  - x(2,0) - v(3,2,0) + x(3,0) = 10
MCLin1(2,3,0):  u(2,3,0) >= -0
MCLin2(2,3,0):  -45 y(3,2,0) - u(2,3,0) <= -0
MCLin3(2,3,0):  36 y(3,2,0) + v(2,3,0) - u(2,3,0) <= 36
MCLin4(2,3,0):  36 y(3,2,0) - u(2,3,0) >= -0
MCLin5(2,3,0):  -45 y(3,2,0) + v(2,3,0) - u(2,3,0) >= -45
MCLin6(3,2,0):  u(3,2,0) >= -0
MCLin7(3,2,0):  -47 y(2,3,0) - u(3,2,0) <= -0
MCLin8(3,2,0):  34 y(2,3,0) + v(3,2,0) - u(3,2,0) <= 34
MCLin9(3,2,0):  34 y(2,3,0) - u(3,2,0) >= -0
MCLin10(3,2,0):  -47 y(2,3,0) + v(3,2,0) - u(3,2,0) >= -47
MCLinV(2,3,1):  x(2,1) - v(2,3,1) - x(3,1) = 3
MCLinV(3,2,1):  - x(2,1) - v(3,2,1) + x(3,1) = 1
MCLin1(2,3,1):  u(2,3,1) >= -0
MCLin2(2,3,1):  -46 y(3,2,1) - u(2,3,1) <= -0
MCLin3(2,3,1):  35 y(3,2,1) + v(2,3,1) - u(2,3,1) <= 35
MCLin4(2,3,1):  35 y(3,2,1) - u(2,3,1) >= -0
MCLin5(2,3,1):  -46 y(3,2,1) + v(2,3,1) - u(2,3,1) >= -46
MCLin6(3,2,1):  u(3,2,1) >= -0
MCLin7(3,2,1):  -39 y(2,3,1) - u(3,2,1) <= -0
MCLin8(3,2,1):  42 y(2,3,1) + v(3,2,1) - u(3,2,1) <= 42
MCLin9(3,2,1):  42 y(2,3,1) - u(3,2,1) >= -0
MCLin10(3,2,1):  -39 y(2,3,1) + v(3,2,1) - u(3,2,1) >= -39
MCLinV(2,3,2):  x(2,2) - v(2,3,2) - x(3,2) = 8
MCLinV(3,2,2):  - x(2,2) - v(3,2,2) + x(3,2) = 8
MCLin1(2,3,2):  u(2,3,2) >= -0
MCLin2(2,3,2):  -42 y(3,2,2) - u(2,3,2) <= -0
MCLin3(2,3,2):  39 y(3,2,2) + v(2,3,2) - u(2,3,2) <= 39
MCLin4(2,3,2):  39 y(3,2,2) - u(2,3,2) >= -0
MCLin5(2,3,2):  -42 y(3,2,2) + v(2,3,2) - u(2,3,2) >= -42
MCLin6(3,2,2):  u(3,2,2) >= -0
MCLin7(3,2,2):  -55 y(2,3,2) - u(3,2,2) <= -0
MCLin8(3,2,2):  26 y(2,3,2) + v(3,2,2) - u(3,2,2) <= 26
MCLin9(3,2,2):  26 y(2,3,2) - u(3,2,2) >= -0
MCLin10(3,2,2):  -55 y(2,3,2) + v(3,2,2) - u(3,2,2) >= -55
makespan(0):  C - x(0,2) >= 8
makespan(1):  C - x(1,0) >= 1
makespan(2):  C - x(2,2) >= 8
makespan(3):  C - x(3,1) >= 3
cut_clique_0(0123,0):  x(2,0) + 0.10000 x(3,0) >= 1
cut_clique_0(023,0):  x(2,0) + 0.10000 x(3,0) >= 1
cut_clique_0(012,0):  0.10000 x(0,0) + x(2,0) >= 1
cut_clique_0(123,0):  x(2,0) + 0.10000 x(3,0) >= 1
cut_clique_0(0123,1):  0.03846 x(0,1) + 0.06410 x(1,1) + 0.01282 x(2,1) + 0.03846 x(3,1) >= 1
cut_clique_0(023,1):  0.04762 x(2,1) + 0.04762 x(3,1) >= 1
cut_clique_0(013,1):  0.04762 x(0,1) + 0.08333 x(1,1) + 0.04762 x(3,1) >= 1
cut_clique_0(012,1):  0.04762 x(0,1) + 0.08333 x(1,1) + 0.04762 x(2,1) >= 1
cut_clique_0(123,1):  0.04762 x(2,1) + 0.04762 x(3,1) >= 1
cut_clique_0(0123,2):  0.02784 x(0,2) + 0.01044 x(1,2) + 0.02784 x(2,2) + 0.01503 x(3,2) >= 1
cut_clique_0(012,2):  0.01256 x(0,2) + 0.01826 x(1,2) + 0.04871 x(2,2) >= 1
cut_clique_0(013,2):  0.06303 x(0,2) + 0.02364 x(1,2) + 0.03095 x(3,2) >= 1
cut_clique_0(023,2):  0.02629 x(0,2) + 0.04382 x(2,2) + 0.01845 x(3,2) >= 1
cut_clique_0(123,2):  0.00775 x(1,2) + 0.07752 x(2,2) >= 1
cut_clique_1(0123,0):  0.04762 x(0,0) + 0.47619 x(2,0) + 0.04762 x(3,0) >= 1
cut_clique_1(023,0):  0.04762 x(0,0) + 0.47619 x(2,0) + 0.04762 x(3,0) >= 1
cut_clique_1(0123,2):  0.02484 x(0,2) + 0.00570 x(1,2) + 0.03639 x(2,2) + 0.01521 x(3,2) >= 1
cut_clique_0:  0.31818 x(2,0) + 0.03306 x(3,0) + 0.02273 x(0,2) + 0.02273 x(2,2) >= 1
cut_clique_1:  0.30930 x(2,0) + 0.03214 x(3,0) + 0.02093 x(0,2) + 0.00233 x(1,2) + 0.02093 x(2,2) >= 1
cut_clique_2:  0.19875 x(2,0) + 0.01807 x(3,0) + 0.02406 x(0,2) + 0.00267 x(1,2) + 0.02406 x(2,2) + 0.00713 x(3,2) >= 1
cut_clique_3:  0.08116 x(2,0) + 0.00738 x(3,0) + 0.02689 x(0,2) + 0.00501 x(1,2) + 0.02689 x(2,2) + 0.01336 x(3,2) >= 1
Bounds
 0 <= C <= 56
 0 <= x(0,0) <= 44
 0 <= y(0,1,0) <= 1
 0 <= y(1,0,0) <= 1
 -56 <= v(0,1,0) <= 31
 -33 <= v(1,0,0) <= 54
 -560 <= u(0,1,0)
 -560 <= u(1,0,0)
 0 <= y(0,2,0) <= 1
 0 <= y(2,0,0) <= 1
 -47 <= v(0,2,0) <= 34
 -45 <= v(2,0,0) <= 36
 -560 <= u(0,2,0)
 -560 <= u(2,0,0)
 0 <= y(0,3,0) <= 1
 0 <= y(3,0,0) <= 1
 -45 <= v(0,3,0) <= 43
 -45 <= v(3,0,0) <= 43
 -560 <= u(0,3,0)
 -560 <= u(3,0,0)
 12 <= x(1,0) <= 55
 0 <= y(1,2,0) <= 1
 0 <= y(2,1,0) <= 1
 -35 <= v(1,2,0) <= 45
 -56 <= v(2,1,0) <= 24
 -560 <= u(1,2,0)
 -560 <= u(2,1,0)
 0 <= y(1,3,0) <= 1
 0 <= y(3,1,0) <= 1
 -33 <= v(1,3,0) <= 54
 -56 <= v(3,1,0) <= 31
 -560 <= u(1,3,0)
 -560 <= u(3,1,0)
 0 <= x(2,0) <= 37
 0 <= y(2,3,0) <= 1
 0 <= y(3,2,0) <= 1
 -45 <= v(2,3,0) <= 36
 -47 <= v(3,2,0) <= 34
 -560 <= u(2,3,0)
 -560 <= u(3,2,0)
 0 <= x(3,0) <= 44
 1 <= x(0,1) <= 45
 0 <= y(0,1,1) <= 1
 0 <= y(1,0,1) <= 1
 -51 <= v(0,1,1) <= 36
 -48 <= v(1,0,1) <= 39
 -560 <= u(0,1,1)
 -560 <= u(1,0,1)
 0 <= y(0,2,1) <= 1
 0 <= y(2,0,1) <= 1
 -47 <= v(0,2,1) <= 34
 -38 <= v(2,0,1) <= 43
 -560 <= u(0,2,1)
 -560 <= u(2,0,1)
 0 <= y(0,3,1) <= 1
 0 <= y(3,0,1) <= 1
 -55 <= v(0,3,1) <= 33
 -39 <= v(3,0,1) <= 49
 -560 <= u(0,3,1)
 -560 <= u(3,0,1)
 0 <= x(1,1) <= 43
 0 <= y(1,2,1) <= 1
 0 <= y(2,1,1) <= 1
 -48 <= v(1,2,1) <= 32
 -42 <= v(2,1,1) <= 38
 -560 <= u(1,2,1)
 -560 <= u(2,1,1)
 0 <= y(1,3,1) <= 1
 0 <= y(3,1,1) <= 1
 -56 <= v(1,3,1) <= 31
 -43 <= v(3,1,1) <= 44
 -560 <= u(1,3,1)
 -560 <= u(3,1,1)
 10 <= x(2,1) <= 47
 0 <= y(2,3,1) <= 1
 0 <= y(3,2,1) <= 1
 -46 <= v(2,3,1) <= 35
 -39 <= v(3,2,1) <= 42
 -560 <= u(2,3,1)
 -560 <= u(3,2,1)
 9 <= x(3,1) <= 53
 4 <= x(0,2) <= 48
 0 <= y(0,1,2) <= 1
 0 <= y(1,0,2) <= 1
 -51 <= v(0,1,2) <= 36
 -47 <= v(1,0,2) <= 40
 -560 <= u(0,1,2)
 -560 <= u(1,0,2)
 0 <= y(0,2,2) <= 1
 0 <= y(2,0,2) <= 1
 -52 <= v(0,2,2) <= 29
 -45 <= v(2,0,2) <= 36
 -560 <= u(0,2,2)
 -560 <= u(2,0,2)
 0 <= y(0,3,2) <= 1
 0 <= y(3,0,2) <= 1
 -49 <= v(0,3,2) <= 39
 -55 <= v(3,0,2) <= 33
 -560 <= u(0,3,2)
 -560 <= u(3,0,2)
 9 <= x(1,2) <= 52
 0 <= y(1,2,2) <= 1
 0 <= y(2,1,2) <= 1
 -47 <= v(1,2,2) <= 33
 -44 <= v(2,1,2) <= 36
 -560 <= u(1,2,2)
 -560 <= u(2,1,2)
 0 <= y(1,3,2) <= 1
 0 <= y(3,1,2) <= 1
 -44 <= v(1,3,2) <= 43
 -54 <= v(3,1,2) <= 33
 -560 <= u(1,3,2)
 -560 <= u(3,1,2)
 11 <= x(2,2) <= 48
 0 <= y(2,3,2) <= 1
 0 <= y(3,2,2) <= 1
 -42 <= v(2,3,2) <= 39
 -55 <= v(3,2,2) <= 26
 -560 <= u(2,3,2)
 -560 <= u(3,2,2)
 1 <= x(3,2) <= 45
Integers
C x(0,0) y(0,1,0) y(1,0,0) v(0,1,0) v(1,0,0) u(0,1,0) u(1,0,0) y(0,2,0) y(2,0,0) 
v(0,2,0) v(2,0,0) u(0,2,0) u(2,0,0) y(0,3,0) y(3,0,0) v(0,3,0) v(3,0,0) u(0,3,0) u(3,0,0) 
x(1,0) y(1,2,0) y(2,1,0) v(1,2,0) v(2,1,0) u(1,2,0) u(2,1,0) y(1,3,0) y(3,1,0) v(1,3,0) 
v(3,1,0) u(1,3,0) u(3,1,0) x(2,0) y(2,3,0) y(3,2,0) v(2,3,0) v(3,2,0) u(2,3,0) u(3,2,0) 
x(3,0) x(0,1) y(0,1,1) y(1,0,1) v(0,1,1) v(1,0,1) u(0,1,1) u(1,0,1) y(0,2,1) y(2,0,1) 
v(0,2,1) v(2,0,1) u(0,2,1) u(2,0,1) y(0,3,1) y(3,0,1) v(0,3,1) v(3,0,1) u(0,3,1) u(3,0,1) 
x(1,1) y(1,2,1) y(2,1,1) v(1,2,1) v(2,1,1) u(1,2,1) u(2,1,1) y(1,3,1) y(3,1,1) v(1,3,1) 
v(3,1,1) u(1,3,1) u(3,1,1) x(2,1) y(2,3,1) y(3,2,1) v(2,3,1) v(3,2,1) u(2,3,1) u(3,2,1) 
x(3,1) x(0,2) y(0,1,2) y(1,0,2) v(0,1,2) v(1,0,2) u(0,1,2) u(1,0,2) y(0,2,2) y(2,0,2) 
v(0,2,2) v(2,0,2) u(0,2,2) u(2,0,2) y(0,3,2) y(3,0,2) v(0,3,2) v(3,0,2) u(0,3,2) u(3,0,2) 
x(1,2) y(1,2,2) y(2,1,2) v(1,2,2) v(2,1,2) u(1,2,2) u(2,1,2) y(1,3,2) y(3,1,2) v(1,3,2) 
v(3,1,2) u(1,3,2) u(3,1,2) x(2,2) y(2,3,2) y(3,2,2) v(2,3,2) v(3,2,2) u(2,3,2) u(3,2,2) 
x(3,2) 
End
